proyfinal/src/viki/013/experimentInOfficeAgust.take6.output/c9cbae84-cdc4-4711-b9c3-9e78c4ce8b52.als.dat
{'cnf.clauses': '118081',
 'cnf.totvars': '69608',
 'conflict literals': '20',
 'conflicts': '12',
 'decisions': '6360',
 'memused.mb': '14.67',
 'outcome': 'UNSAT',
 'propagations': '29594',
 'restarts': '1',
 'solver.msecs': 34,
 'task.msecs': 81}
