proyfinal/src/viki/013/experimentInOfficeAgust.take6.output/c9cbae84-cdc4-4711-b9c3-9e78c4ce8b52.als.out
Reading from standard input... Use '--help' for help.
============================[ Problem Statistics ]=============================
|                                                                             |
|  Number of variables:         69608                                         |
|  Number of clauses:          118081                                         |
|  Parse time:                   0.03 s                                       |
|                                                                             |
============================[ Search Statistics ]==============================
| Conflicts |          ORIGINAL         |          LEARNT          | Progress |
|           |    Vars  Clauses Literals |    Limit  Clauses Lit/Cl |          |
===============================================================================
===============================================================================
restarts              : 1
conflicts             : 12             (346 /sec)
decisions             : 6360           (0.00 % random) (183407 /sec)
propagations          : 29594          (853419 /sec)
conflict literals     : 20             (0.00 % deleted)
Memory used           : 14.67 MB
CPU time              : 0.034677 s

UNSATISFIABLE
